(set-info :smt-lib-version 2.6)
(set-logic QF_UFLRA)
(set-info :source |CPAchecker with k-induction on SV-COMP14 program using MathSAT5, submitted by Philipp Wendler, http://cpachecker.sosy-lab.org|)
(set-info :category "industrial")
(set-info :status unsat)


(declare-fun ___pc@1 () Real)
(declare-fun |main::found@1| () Real)
(define-fun _7 () Real 0)
(define-fun _14 () Real 1)
(define-fun _42 () Real 5)
(define-fun _127 () Real ___pc@1)
(define-fun _128 () Bool (= _127 _7))
(define-fun _358 () Real |main::found@1|)
(define-fun _892 () Bool (<= _14 _127))
(define-fun _893 () Bool (<= _127 _42))
(define-fun _894 () Bool (and _892 _893))
(define-fun _895 () Bool (= _358 _7))
(define-fun _896 () Bool (and _894 _895))
(define-fun _897 () Bool (or _128 _896))
(declare-fun |main::nc_A@1| () Real)
(declare-fun ___pc@2 () Real)
(declare-fun |__ADDRESS_OF_main::__CPAchecker_TMP_4| () Real)
(declare-fun |main::j@1| () Real)
(declare-fun |main::i@2| () Real)
(declare-fun |main::found@2| () Real)
(declare-fun |main::__CPAchecker_TMP_4@3| () Real)
(declare-fun |__VERIFIER_assert::cond@2| () Real)
(declare-fun |main::nc_B@1| () Real)
(declare-fun |main::j@2| () Real)
(declare-fun |__ADDRESS_OF_main::string_A| () Real)
(declare-fun *char@1 (Real) Real)
(declare-fun |__ADDRESS_OF_main::string_B| () Real)
(declare-fun |main::i@1| () Real)
(declare-fun __BASE_ADDRESS_OF__ (Real) Real)
(define-fun _19 () Real |__ADDRESS_OF_main::string_A|)
(define-fun _34 () Real 4)
(define-fun _39 () Real |__ADDRESS_OF_main::string_B|)
(define-fun _47 () Real (- 1))
(define-fun _101 () Real |main::found@2|)
(define-fun _102 () Bool (= _101 _7))
(define-fun _130 () Bool (not _128))
(define-fun _131 () Bool (= _127 _42))
(define-fun _133 () Bool (and _130 _131))
(define-fun _134 () Bool (not _131))
(define-fun _135 () Bool (and _130 _134))
(define-fun _136 () Bool (= _127 _34))
(define-fun _138 () Bool (and _135 _136))
(define-fun _151 () Real |main::i@1|)
(define-fun _163 () Real |main::i@2|)
(define-fun _166 () Real (+ _19 _151))
(define-fun _169 () Real (* (- 1) _163))
(define-fun _170 () Real (+ _151 _169))
(define-fun _171 () Bool (= _170 _47))
(define-fun _188 () Real ___pc@2)
(define-fun _193 () Real |main::nc_A@1|)
(define-fun _221 () Real |main::nc_B@1|)
(define-fun _222 () Real (+ _39 _221))
(define-fun _223 () Real (*char@1 _222))
(define-fun _224 () Bool (= _223 _7))
(define-fun _228 () Bool (and _138 _224))
(define-fun _229 () Bool (<= _193 _221))
(define-fun _231 () Bool (and _228 _229))
(define-fun _234 () Real |main::j@2|)
(define-fun _235 () Bool (= _234 _7))
(define-fun _236 () Bool (and _231 _235))
(define-fun _237 () Bool (= _163 _234))
(define-fun _238 () Bool (and _236 _237))
(define-fun _260 () Bool (<= _193 _151))
(define-fun _261 () Bool (not _260))
(define-fun _263 () Bool (and _133 _261))
(define-fun _265 () Real |main::j@1|)
(define-fun _266 () Bool (<= _221 _265))
(define-fun _267 () Bool (not _266))
(define-fun _269 () Bool (and _263 _267))
(define-fun _273 () Real (* (- 1) _265))
(define-fun _280 () Real |__ADDRESS_OF_main::__CPAchecker_TMP_4|)
(define-fun _281 () Real (__BASE_ADDRESS_OF__ _280))
(define-fun _282 () Bool (= _280 _281))
(define-fun _286 () Bool (not _102))
(define-fun _288 () Bool (= _101 _14))
(define-fun _291 () Bool (not _288))
(define-fun _294 () Real |main::__CPAchecker_TMP_4@3|)
(define-fun _295 () Bool (= _294 _7))
(define-fun _297 () Bool (= _294 _14))
(define-fun _300 () Real |__VERIFIER_assert::cond@2|)
(define-fun _301 () Bool (= _294 _300))
(define-fun _303 () Bool (= _300 _7))
(define-fun _309 () Real (*char@1 _166))
(define-fun _310 () Real (+ _39 _265))
(define-fun _311 () Real (*char@1 _310))
(define-fun _312 () Bool (= _309 _311))
(define-fun _314 () Bool (and _269 _312))
(define-fun _315 () Bool (not _312))
(define-fun _316 () Bool (and _269 _315))
(define-fun _319 () Real (+ _169 _273))
(define-fun _320 () Real (+ _151 _319))
(define-fun _321 () Bool (= _320 _47))
(define-fun _322 () Bool (and _316 _321))
(define-fun _323 () Bool (and _235 _322))
(define-fun _324 () Bool (and _171 _314))
(define-fun _326 () Real (+ _234 _273))
(define-fun _327 () Bool (= _326 _14))
(define-fun _328 () Bool (and _324 _327))
(define-fun _329 () Bool (or _323 _328))
(define-fun _331 () Bool (= _188 _42))
(define-fun _332 () Bool (and _238 _331))
(define-fun _343 () Bool (and _329 _331))
(define-fun _349 () Bool (or _332 _343))
(define-fun _396 () Bool (= _188 _7))
(define-fun _399 () Bool (not _396))
(define-fun _570 () Bool (and _349 _399))
(define-fun _579 () Bool (and _331 _570))
(define-fun _581 () Bool (<= _193 _163))
(define-fun _582 () Bool (not _581))
(define-fun _584 () Bool (and _579 _582))
(define-fun _589 () Bool (<= _221 _234))
(define-fun _595 () Real (* (- 1) _234))
(define-fun _596 () Real (+ _221 _595))
(define-fun _597 () Bool (<= _14 _596))
(define-fun _598 () Bool (not _597))
(define-fun _599 () Real (ite _598 _14 _7))
(define-fun _600 () Bool (= _101 _599))
(define-fun _858 () Bool (and _589 _600))
(define-fun _859 () Bool (and _282 _858))
(define-fun _860 () Bool (and _102 _859))
(define-fun _861 () Bool (and _286 _859))
(define-fun _862 () Bool (and _288 _861))
(define-fun _863 () Bool (and _291 _861))
(define-fun _864 () Bool (or _860 _862))
(define-fun _865 () Bool (and _295 _863))
(define-fun _866 () Bool (and _297 _864))
(define-fun _867 () Bool (or _865 _866))
(define-fun _868 () Bool (and _301 _867))
(define-fun _869 () Bool (and _303 _868))
(define-fun _871 () Bool (not _869))
(define-fun _872 () Bool (not _584))
(define-fun _873 () Bool (or _871 _872))
(define-fun _874 () Bool (and _581 _600))
(define-fun _875 () Bool (and _282 _874))
(define-fun _876 () Bool (and _102 _875))
(define-fun _877 () Bool (and _286 _875))
(define-fun _878 () Bool (and _288 _877))
(define-fun _879 () Bool (and _291 _877))
(define-fun _880 () Bool (or _876 _878))
(define-fun _881 () Bool (and _295 _879))
(define-fun _882 () Bool (and _297 _880))
(define-fun _883 () Bool (or _881 _882))
(define-fun _884 () Bool (and _301 _883))
(define-fun _885 () Bool (and _303 _884))
(define-fun _887 () Bool (not _885))
(define-fun _888 () Bool (not _579))
(define-fun _889 () Bool (or _887 _888))
(define-fun _890 () Bool (and _873 _889))
(define-fun _891 () Bool (not _890))



(assert _897)

(assert _891)
(check-sat)


(exit)
